n = 60;
capacity = 100;
size = [80, 78, 77, 74, 72, 71, 71, 70, 68, 67, 64, 62, 61, 60, 60, 60, 60, 60, 59, 58, 56, 54, 52, 51, 49, 48, 44, 43, 43, 42, 41, 40, 39, 39, 39, 38, 37, 37, 36, 35, 35, 35, 34, 34, 34, 32, 32, 30, 29, 29, 28, 28, 27, 27, 27, 24, 23, 21, 20, 20];
